(declare-fun x1 () Real)
(declare-fun x2 () Real)
(declare-fun x3 () Real)
(declare-fun x4 () Real)
(declare-fun x5 () Real)
(assert ( and ( or  (<= (+  (* 1 x1) ) 226) ) ( or  (<= (+  (* 14 x1)  (* 1 x2) ) 3164)  (<= (+  (* 15 x1)  (* 1 x2) ) 3296) ) ( or  (<= (+  (* 14 x1)  (* 1 x2)  (* 1 x3) ) 3164)  (<= (+  (* 15 x1)  (* 1 x2)  (* 1 x3) ) 3296)  (<= (+  (* 17 x1)  (* 2 x2)  (* 1 x3) ) 3842)  (<= (+  (* 18 x1)  (* 2 x2)  (* 1 x3) ) 3972) ) ( or  (<= (+  (* 14 x1)  (* 1 x2)  (* 1 x3)  (* 1 x4) ) 3164)  (<= (+  (* 15 x1)  (* 1 x2)  (* 1 x3)  (* 1 x4) ) 3296)  (<= (+  (* 17 x1)  (* 2 x2)  (* 1 x3)  (* 1 x4) ) 3842)  (<= (+  (* 18 x1)  (* 2 x2)  (* 1 x3)  (* 1 x4) ) 3972)  (<= (+  (* 18 x1)  (* 2 x2)  (* 2 x3)  (* 1 x4) ) 4068)  (<= (+  (* 19 x1)  (* 2 x2)  (* 2 x3)  (* 1 x4) ) 4254) ) ( or  (<= (+  (* 14 x1)  (* 1 x2)  (* 1 x3)  (* 1 x4)  (* 1 x5) ) 3164)  (<= (+  (* 15 x1)  (* 1 x2)  (* 1 x3)  (* 1 x4)  (* 1 x5) ) 3296)  (<= (+  (* 17 x1)  (* 2 x2)  (* 1 x3)  (* 1 x4)  (* 1 x5) ) 3842)  (<= (+  (* 18 x1)  (* 2 x2)  (* 1 x3)  (* 1 x4)  (* 1 x5) ) 3972)  (<= (+  (* 18 x1)  (* 2 x2)  (* 2 x3)  (* 1 x4)  (* 1 x5) ) 4068)  (<= (+  (* 19 x1)  (* 2 x2)  (* 2 x3)  (* 1 x4)  (* 1 x5) ) 4254)  (<= (+  (* 21 x1)  (* 2 x2)  (* 2 x3)  (* 2 x4)  (* 1 x5) ) 4746)  (<= (+  (* 22 x1)  (* 2 x2)  (* 2 x3)  (* 2 x4)  (* 1 x5) ) 4800) ) (>= x1 4) (>= x2 65) (>= x3 79) (>= x4 85) (>= x5 96) (<= x1 132) (<= x2 1934) (<= x3 2330) (<= x4 2496) (<= x5 2816) ))
(check-sat)
(exit)
